s td 27 5 30
b 1 6 30
b 2 2 7
b 3 2 13
b 4 13 14
b 5 1 19
b 6 16 20 26
b 7 27 30
b 8 13 29
b 9 1 5 15 22
b 10 9 18 23
b 11 1 3 11
b 12 1 3 8 22
b 13 18 23 24
b 14 21 22 28
b 15 12 25 28
b 16 16 23 30
b 17 1 3 16 17 22
b 18 1 4 16 17 22
b 19 4 16 17 22 24
b 20 4 16 22 23 24
b 21 4 10 23 24
b 22 1 4 17 22 28
b 23 1 12 17 28
b 24 1 4 15 16 22
b 25 3 16 17 20
b 26 13 16 17 20
b 27 23 24
1 16
2 3
3 26
4 26
5 17
6 25
7 16
8 26
9 24
10 13
11 17
12 17
13 27
14 22
15 23
16 20
17 18
17 25
18 19
18 22
18 24
19 20
20 27
20 21
22 23
25 26
